<number of tasks>
250

<cycle time>
1000

<order strength>
0.595


<task times>
1 541
2 638
3 523
4 632
5 277
6 465
7 519
8 569
9 501
10 485
11 435
12 372
13 340
14 383
15 385
16 624
17 601
18 555
19 643
20 475
21 700
22 489
23 102
24 695
25 576
26 507
27 453
28 533
29 618
30 352
31 680
32 555
33 613
34 371
35 691
36 381
37 682
38 445
39 361
40 701
41 417
42 530
43 685
44 329
45 593
46 497
47 409
48 686
49 499
50 598
51 408
52 585
53 469
54 551
55 438
56 459
57 430
58 756
59 523
60 509
61 297
62 426
63 468
64 812
65 559
66 383
67 438
68 397
69 665
70 492
71 545
72 797
73 428
74 251
75 472
76 530
77 324
78 447
79 696
80 584
81 444
82 517
83 397
84 360
85 629
86 506
87 370
88 574
89 395
90 655
91 451
92 521
93 354
94 514
95 418
96 569
97 611
98 343
99 628
100 443
101 667
102 548
103 627
104 456
105 260
106 578
107 519
108 425
109 464
110 564
111 722
112 464
113 468
114 618
115 562
116 503
117 491
118 395
119 338
120 581
121 556
122 602
123 502
124 476
125 451
126 417
127 419
128 394
129 785
130 486
131 499
132 540
133 496
134 463
135 241
136 613
137 587
138 384
139 528
140 407
141 432
142 477
143 287
144 617
145 526
146 419
147 673
148 535
149 453
150 607
151 537
152 459
153 561
154 368
155 514
156 586
157 304
158 454
159 489
160 575
161 463
162 648
163 463
164 606
165 501
166 682
167 625
168 566
169 541
170 684
171 599
172 761
173 547
174 606
175 482
176 370
177 346
178 460
179 548
180 385
181 570
182 419
183 510
184 490
185 694
186 629
187 615
188 443
189 389
190 611
191 291
192 452
193 476
194 638
195 353
196 495
197 420
198 434
199 426
200 702
201 595
202 296
203 461
204 348
205 825
206 533
207 344
208 404
209 609
210 407
211 364
212 587
213 803
214 395
215 628
216 491
217 406
218 568
219 439
220 374
221 519
222 584
223 385
224 473
225 695
226 555
227 519
228 577
229 739
230 435
231 360
232 541
233 389
234 532
235 587
236 335
237 550
238 495
239 763
240 511
241 429
242 495
243 456
244 440
245 552
246 538
247 489
248 463
249 590
250 309

<precedence relations>
1,218
2,58
3,58
4,155
5,227
6,150
7,9
7,10
7,11
7,12
7,13
7,15
7,16
8,13
8,14
8,31
8,40
8,42
8,43
9,58
10,58
11,205
12,121
13,41
14,101
15,101
16,17
16,18
16,19
16,20
16,21
16,22
16,23
17,137
18,137
19,58
20,58
21,190
22,104
23,24
23,25
23,26
23,27
23,28
23,29
23,30
23,31
23,32
23,33
23,34
24,218
25,58
26,58
27,104
28,121
29,41
30,41
31,41
32,101
33,35
33,37
33,38
33,40
33,42
33,47
34,36
34,37
34,39
34,43
34,59
35,137
36,58
37,58
38,190
39,104
40,121
41,46
41,47
41,48
41,49
41,50
41,51
41,52
41,53
41,54
41,55
42,101
43,44
43,45
43,47
44,218
45,58
46,104
47,227
48,141
49,57
49,61
49,85
49,86
50,56
50,57
50,58
50,61
51,59
51,90
51,92
51,103
52,56
52,57
52,58
52,59
52,60
52,61
53,56
53,80
53,117
54,56
54,61
55,56
55,110
55,117
56,137
57,218
58,62
58,63
58,64
58,65
58,66
58,67
58,68
58,69
58,70
58,71
58,72
58,73
58,74
58,75
58,76
58,77
59,101
60,101
61,77
61,120
62,78
62,85
63,78
63,79
63,80
63,81
64,83
64,85
64,86
65,78
65,79
65,149
65,161
66,78
66,100
67,189
67,190
68,78
68,80
68,123
68,136
69,86
69,87
70,78
70,103
70,153
71,83
71,84
71,85
72,89
72,117
73,78
73,79
73,119
73,141
73,150
73,151
74,78
74,79
74,81
74,87
75,82
75,94
75,98
75,111
75,117
76,92
77,78
77,79
77,81
77,122
78,155
79,190
80,205
81,121
82,121
83,155
84,86
84,87
85,87
86,155
87,88
87,89
87,90
87,91
87,92
87,93
87,94
87,95
88,229
89,218
90,190
91,104
92,101
93,96
93,97
93,100
93,180
94,97
94,100
94,142
95,98
95,99
95,102
96,229
97,190
98,104
99,121
100,150
101,104
101,105
101,106
101,107
101,108
101,109
101,110
101,111
102,103
102,110
102,111
102,117
102,151
103,155
104,112
104,113
104,114
104,115
104,116
105,227
106,138
107,153
107,177
108,141
108,151
108,152
109,117
109,134
109,143
110,183
110,188
111,136
112,205
113,227
114,121
115,120
115,136
115,137
116,119
116,122
117,118
117,140
118,137
119,137
120,190
121,123
121,124
121,125
121,126
121,127
121,128
121,129
121,130
121,131
121,132
121,133
121,136
122,134
122,135
123,137
124,137
124,142
125,140
127,155
128,187
128,191
129,138
129,141
129,149
130,153
130,218
131,138
131,178
132,150
133,150
133,176
134,137
134,138
135,142
135,154
135,192
135,193
136,139
137,144
137,145
137,146
137,147
137,148
137,152
137,153
138,190
139,150
140,150
141,161
141,174
142,143
142,149
142,151
143,229
144,155
145,154
145,155
146,154
146,183
146,191
148,154
148,155
148,161
149,190
150,154
150,156
150,157
150,158
150,159
150,160
151,161
151,215
152,178
153,216
154,218
155,162
155,163
155,164
155,165
155,166
155,167
155,168
155,169
155,170
155,171
155,172
155,173
155,174
156,189
157,187
158,181
158,185
159,182
159,220
161,205
161,218
163,192
166,178
166,193
166,217
167,205
168,175
169,175
169,178
170,213
171,177
171,219
172,190
174,176
175,190
176,179
176,180
177,178
177,181
178,229
179,229
180,185
181,182
181,183
181,184
182,218
183,227
184,227
185,186
185,187
185,188
186,218
187,190
188,189
188,191
188,192
188,193
189,218
190,194
190,195
190,196
190,197
190,198
190,199
190,200
190,201
190,202
190,203
190,204
191,205
192,221
193,206
194,216
196,214
198,217
198,221
199,213
202,221
203,213
205,207
205,208
205,209
205,210
205,211
205,212
205,213
206,220
207,227
208,217
208,227
208,235
212,216
214,215
214,217
214,250
215,218
216,217
216,219
216,220
217,229
218,221
218,222
218,223
218,224
218,225
218,226
218,228
219,227
220,227
221,229
222,229
224,235
227,230
227,231
227,232
227,233
227,234
229,236
229,237
229,238
229,239
229,240
229,241
229,242
229,243
229,244
229,245
229,246
229,247
229,248
229,249
234,250

<end>
